p cnf 166 423
a 9 11 14 17 43 45 24 26 2 4 100 112 122 133 141 159 1 8 23 32 38 42 0
d 61 14 17 0
d 99 23 32 0
d 93 1 8 0
d 114 38 42 0
d 3 2 0
d 5 2 4 0
d 6 1 2 4 0
d 7 1 2 4 0
d 10 9 0
d 12 11 0
d 13 9 11 0
d 15 14 0
d 16 9 11 14 0
d 18 17 0
d 19 9 11 14 17 0
d 20 8 9 11 14 17 0
d 21 8 9 11 14 17 0
d 22 1 2 4 8 9 11 14 17 0
d 25 24 0
d 27 26 0
d 28 24 26 0
d 29 23 24 26 0
d 30 23 24 26 0
d 31 1 2 4 8 9 11 14 17 23 24 26 0
d 33 4 0
d 34 2 4 0
d 35 32 2 4 0
d 36 32 2 4 0
d 37 1 2 4 8 9 11 14 17 23 24 26 32 0
d 39 38 9 11 14 17 0
d 40 38 9 11 14 17 0
d 41 1 2 4 8 9 11 14 17 23 24 26 32 38 0
d 44 43 0
d 46 45 0
d 47 43 45 0
d 48 43 45 24 0
d 49 43 45 24 26 0
d 50 42 43 45 24 26 0
d 51 42 43 45 24 26 0
d 52 1 2 4 8 9 11 14 17 23 24 26 32 38 42 43 45 0
d 53 9 0
d 54 9 11 0
d 55 9 11 0
d 56 9 11 0
d 57 14 9 0
d 58 14 9 11 0
d 59 14 9 11 0
d 60 9 11 14 0
d 62 9 11 14 17 0
d 63 9 11 14 17 0
d 64 9 11 14 17 0
d 65 9 11 14 17 0
d 66 14 17 0
d 67 43 9 0
d 68 43 9 11 0
d 69 14 17 43 9 11 0
d 70 14 17 43 9 11 0
d 71 9 11 14 17 43 0
d 72 43 45 0
d 73 43 45 9 11 14 17 0
d 74 43 45 9 11 14 17 0
d 75 9 11 14 17 43 45 0
d 76 24 9 0
d 77 24 9 11 0
d 78 14 17 43 0
d 79 14 17 43 45 0
d 80 24 9 11 14 17 43 45 0
d 81 24 9 11 14 17 43 45 0
d 82 9 11 14 17 43 45 24 0
d 83 43 45 24 26 0
d 84 9 11 14 17 43 45 24 26 0
d 85 9 11 14 17 43 45 24 26 0
d 86 9 11 14 17 43 45 24 26 0
d 87 2 9 0
d 88 2 9 11 0
d 89 24 26 2 9 11 0
d 90 14 17 43 45 24 26 2 9 11 0
d 91 14 17 43 45 24 26 2 9 11 0
d 92 9 11 14 17 43 45 24 26 2 0
d 94 43 45 24 26 1 8 0
d 95 2 4 9 11 14 17 0
d 96 43 45 24 26 2 4 9 11 14 17 0
d 97 43 45 24 26 1 8 2 4 9 11 14 17 0
d 98 9 11 14 17 43 45 24 26 2 1 8 4 0
d 101 100 9 0
d 102 100 9 11 0
d 103 100 9 11 14 17 43 45 0
d 104 23 32 100 9 11 14 17 43 45 0
d 105 24 26 2 0
d 106 24 26 2 4 0
d 107 24 26 2 4 100 9 11 14 17 43 45 0
d 108 23 32 100 9 11 14 17 43 45 24 26 2 4 0
d 109 9 11 14 17 43 45 24 26 2 1 8 4 23 32 100 0
d 110 100 0
d 111 2 4 100 0
d 113 2 4 100 112 0
d 115 2 4 100 112 38 42 0
d 116 9 11 14 17 43 45 24 26 0
d 117 2 4 100 112 9 11 14 17 43 45 24 26 0
d 118 2 4 100 112 38 42 9 11 14 17 43 45 24 26 0
d 119 9 11 14 17 43 45 24 26 2 1 8 4 23 32 100 112 38 42 0
d 120 112 0
d 121 100 112 0
d 123 122 9 0
d 124 122 9 11 0
d 125 100 112 122 9 11 0
d 126 14 17 43 45 23 32 0
d 127 100 112 122 9 11 14 17 43 45 23 32 0
d 128 14 17 43 45 24 26 2 4 0
d 129 100 112 122 9 11 14 17 43 45 24 26 2 4 0
d 130 100 112 122 9 11 14 17 43 45 23 32 24 26 2 4 0
d 131 9 11 14 17 43 45 24 26 2 1 8 4 23 32 100 112 38 42 122 0
d 132 122 0
d 134 122 133 0
d 135 122 133 9 11 14 17 0
d 136 2 4 100 112 0
d 137 43 45 24 26 2 4 100 112 0
d 138 122 133 9 11 14 17 43 45 24 26 2 4 100 112 0
d 139 122 133 9 11 14 17 43 45 24 26 2 4 100 112 0
d 140 9 11 14 17 43 45 24 26 2 1 8 4 23 32 100 112 38 42 122 133 0
d 142 141 9 11 0
d 143 141 9 11 14 17 43 45 0
d 144 100 112 122 0
d 145 133 0
d 146 100 112 122 133 0
d 147 23 32 100 112 122 133 0
d 148 141 9 11 14 17 43 45 23 32 100 112 122 133 0
d 149 141 9 0
d 150 141 9 11 0
d 151 141 9 11 14 17 43 45 0
d 152 24 26 2 4 100 112 122 133 0
d 153 141 9 11 14 17 43 45 24 26 2 4 100 112 122 133 0
d 154 141 9 11 14 17 43 45 23 32 100 112 122 133 24 26 2 4 0
d 155 9 11 14 17 43 45 24 26 2 1 8 4 23 32 100 112 38 42 122 133 141 0
d 156 122 133 0
d 157 141 0
d 158 122 133 141 0
d 160 122 133 141 159 0
d 161 2 4 100 112 122 133 141 159 0
d 162 38 42 2 4 100 112 122 133 141 159 0
d 163 9 11 14 17 43 45 24 26 2 4 100 112 122 133 141 159 0
d 164 38 42 2 4 100 112 122 133 141 159 9 11 14 17 43 45 24 26 0
d 165 9 11 14 17 43 45 24 26 2 1 8 4 23 32 100 112 38 42 122 133 141 159 0
d 166 1 2 4 8 9 11 14 17 23 24 26 32 38 42 43 45 100 112 122 133 141 159 0
3 2 0
-3 -2 0
-5 3 0
-5 4 0
5 -3 -4 0
6 -1 -5 0
6 1 5 0
-6 -1 5 0
-6 1 -5 0
7 6 0
-7 -6 0
10 9 0
-10 -9 0
12 11 0
-12 -11 0
-13 10 0
-13 12 0
13 -10 -12 0
15 14 0
-15 -14 0
-16 13 0
-16 15 0
16 -13 -15 0
18 17 0
-18 -17 0
-19 16 0
-19 18 0
19 -16 -18 0
20 -8 -19 0
20 8 19 0
-20 -8 19 0
-20 8 -19 0
21 20 0
-21 -20 0
22 -7 0
22 -21 0
-22 7 21 0
25 24 0
-25 -24 0
27 26 0
-27 -26 0
-28 25 0
-28 27 0
28 -25 -27 0
29 -23 -28 0
29 23 28 0
-29 -23 28 0
-29 23 -28 0
30 29 0
-30 -29 0
31 -22 0
31 -30 0
-31 22 30 0
33 4 0
-33 -4 0
-34 3 0
-34 33 0
34 -3 -33 0
35 -32 -34 0
35 32 34 0
-35 -32 34 0
-35 32 -34 0
36 35 0
-36 -35 0
37 -31 0
37 -36 0
-37 31 36 0
39 -38 -19 0
39 38 19 0
-39 -38 19 0
-39 38 -19 0
40 39 0
-40 -39 0
41 -37 0
41 -40 0
-41 37 40 0
44 43 0
-44 -43 0
46 45 0
-46 -45 0
-47 44 0
-47 46 0
47 -44 -46 0
-48 47 0
-48 25 0
48 -47 -25 0
-49 48 0
-49 27 0
49 -48 -27 0
50 -42 -49 0
50 42 49 0
-50 -42 49 0
-50 42 -49 0
51 50 0
-51 -50 0
52 -41 0
52 -51 0
-52 41 51 0
53 -9 -9 0
53 9 9 0
-53 -9 9 0
-53 9 -9 0
-54 10 0
-54 11 0
54 -10 -11 0
55 -54 -54 0
55 54 54 0
-55 -54 54 0
-55 54 -54 0
-56 53 0
-56 55 0
56 -53 -55 0
-57 14 0
-57 10 0
57 -14 -10 0
-58 57 0
-58 12 0
58 -57 -12 0
59 -58 -58 0
59 58 58 0
-59 -58 58 0
-59 58 -58 0
-60 56 0
-60 59 0
60 -56 -59 0
-62 13 0
-62 61 0
62 -13 -61 0
-63 16 0
-63 17 0
63 -16 -17 0
64 -62 -63 0
64 62 63 0
-64 -62 63 0
-64 62 -63 0
-65 60 0
-65 64 0
65 -60 -64 0
-66 15 0
-66 18 0
66 -15 -18 0
-67 43 0
-67 10 0
67 -43 -10 0
-68 67 0
-68 12 0
68 -67 -12 0
-69 66 0
-69 68 0
69 -66 -68 0
70 -69 -69 0
70 69 69 0
-70 -69 69 0
-70 69 -69 0
-71 65 0
-71 70 0
71 -65 -70 0
-72 44 0
-72 45 0
72 -44 -45 0
-73 72 0
-73 19 0
73 -72 -19 0
74 -73 -73 0
74 73 73 0
-74 -73 73 0
-74 73 -73 0
-75 71 0
-75 74 0
75 -71 -74 0
-76 24 0
-76 10 0
76 -24 -10 0
-77 76 0
-77 12 0
77 -76 -12 0
-78 66 0
-78 44 0
78 -66 -44 0
-79 78 0
-79 46 0
79 -78 -46 0
-80 77 0
-80 79 0
80 -77 -79 0
81 -80 -80 0
81 80 80 0
-81 -80 80 0
-81 80 -80 0
-82 75 0
-82 81 0
82 -75 -81 0
-83 48 0
-83 26 0
83 -48 -26 0
-84 19 0
-84 83 0
84 -19 -83 0
85 -84 -84 0
85 84 84 0
-85 -84 84 0
-85 84 -84 0
-86 82 0
-86 85 0
86 -82 -85 0
-87 2 0
-87 10 0
87 -2 -10 0
-88 87 0
-88 12 0
88 -87 -12 0
-89 28 0
-89 88 0
89 -28 -88 0
-90 79 0
-90 89 0
90 -79 -89 0
91 -90 -90 0
91 90 90 0
-91 -90 90 0
-91 90 -90 0
-92 86 0
-92 91 0
92 -86 -91 0
-94 49 0
-94 93 0
94 -49 -93 0
-95 5 0
-95 19 0
95 -5 -19 0
-96 49 0
-96 95 0
96 -49 -95 0
97 -94 -96 0
97 94 96 0
-97 -94 96 0
-97 94 -96 0
-98 92 0
-98 97 0
98 -92 -97 0
-101 100 0
-101 10 0
101 -100 -10 0
-102 101 0
-102 12 0
102 -101 -12 0
-103 102 0
-103 79 0
103 -102 -79 0
-104 99 0
-104 103 0
104 -99 -103 0
-105 28 0
-105 3 0
105 -28 -3 0
-106 105 0
-106 33 0
106 -105 -33 0
-107 106 0
-107 103 0
107 -106 -103 0
108 -104 -107 0
108 104 107 0
-108 -104 107 0
-108 104 -107 0
-109 98 0
-109 108 0
109 -98 -108 0
110 100 0
-110 -100 0
-111 34 0
-111 110 0
111 -34 -110 0
-113 111 0
-113 112 0
113 -111 -112 0
-115 113 0
-115 114 0
115 -113 -114 0
-116 19 0
-116 49 0
116 -19 -49 0
-117 113 0
-117 116 0
117 -113 -116 0
118 -115 -117 0
118 115 117 0
-118 -115 117 0
-118 115 -117 0
-119 109 0
-119 118 0
119 -109 -118 0
120 112 0
-120 -112 0
-121 110 0
-121 120 0
121 -110 -120 0
-123 122 0
-123 10 0
123 -122 -10 0
-124 123 0
-124 12 0
124 -123 -12 0
-125 121 0
-125 124 0
125 -121 -124 0
-126 79 0
-126 99 0
126 -79 -99 0
-127 125 0
-127 126 0
127 -125 -126 0
-128 79 0
-128 106 0
128 -79 -106 0
-129 125 0
-129 128 0
129 -125 -128 0
130 -127 -129 0
130 127 129 0
-130 -127 129 0
-130 127 -129 0
-131 119 0
-131 130 0
131 -119 -130 0
132 122 0
-132 -122 0
-134 132 0
-134 133 0
134 -132 -133 0
-135 134 0
-135 19 0
135 -134 -19 0
-136 111 0
-136 120 0
136 -111 -120 0
-137 49 0
-137 136 0
137 -49 -136 0
-138 135 0
-138 137 0
138 -135 -137 0
139 -138 -138 0
139 138 138 0
-139 -138 138 0
-139 138 -138 0
-140 131 0
-140 139 0
140 -131 -139 0
142 -141 -13 0
142 141 13 0
-142 -141 13 0
-142 141 -13 0
-143 142 0
-143 79 0
143 -142 -79 0
-144 121 0
-144 132 0
144 -121 -132 0
145 133 0
-145 -133 0
-146 144 0
-146 145 0
146 -144 -145 0
-147 99 0
-147 146 0
147 -99 -146 0
-148 143 0
-148 147 0
148 -143 -147 0
-149 141 0
-149 10 0
149 -141 -10 0
-150 149 0
-150 12 0
150 -149 -12 0
-151 150 0
-151 79 0
151 -150 -79 0
-152 106 0
-152 146 0
152 -106 -146 0
-153 151 0
-153 152 0
153 -151 -152 0
154 -148 -153 0
154 148 153 0
-154 -148 153 0
-154 148 -153 0
-155 140 0
-155 154 0
155 -140 -154 0
-156 132 0
-156 145 0
156 -132 -145 0
157 141 0
-157 -141 0
-158 156 0
-158 157 0
158 -156 -157 0
-160 158 0
-160 159 0
160 -158 -159 0
-161 136 0
-161 160 0
161 -136 -160 0
-162 114 0
-162 161 0
162 -114 -161 0
-163 116 0
-163 161 0
163 -116 -161 0
164 -162 -163 0
164 162 163 0
-164 -162 163 0
-164 162 -163 0
-165 155 0
-165 164 0
165 -155 -164 0
166 -52 0
166 -165 0
-166 52 165 0
166 0
